************************************************************************
file with basedata            : md368_.bas
initial value random generator: 1751235623
************************************************************************
projects                      :  1
jobs (incl. supersource/sink ):  22
horizon                       :  166
RESOURCES
  - renewable                 :  2   R
  - nonrenewable              :  2   N
  - doubly constrained        :  0   D
************************************************************************
PROJECT INFORMATION:
pronr.  #jobs rel.date duedate tardcost  MPM-Time
    1     20      0       29        3       29
************************************************************************
PRECEDENCE RELATIONS:
jobnr.    #modes  #successors   successors
   1        1          3           2   3   4
   2        3          3           6   7  15
   3        3          3           5   7  18
   4        3          2           5  18
   5        3          1          10
   6        3          3           8   9  12
   7        3          3           9  10  19
   8        3          3          16  17  18
   9        3          1          11
  10        3          1          11
  11        3          2          13  17
  12        3          1          13
  13        3          2          14  16
  14        3          1          20
  15        3          3          16  19  20
  16        3          1          21
  17        3          2          20  21
  18        3          2          19  21
  19        3          1          22
  20        3          1          22
  21        3          1          22
  22        1          0        
************************************************************************
REQUESTS/DURATIONS:
jobnr. mode duration  R 1  R 2  N 1  N 2
------------------------------------------------------------------------
  1      1     0       0    0    0    0
  2      1     4       8    3   10    4
         2     5       6    3    5    3
         3    10       6    2    3    2
  3      1     6       7    6    2    9
         2     6       6    8    2   10
         3    10       5    3    2    9
  4      1     1      10    5    9    9
         2     8      10    5    9    5
         3    10      10    5    9    4
  5      1     5       4    8    8    7
         2     6       3    4    8    6
         3     8       3    3    7    5
  6      1     1      10    8    2    8
         2     6       7    7    2    7
         3     7       5    7    2    7
  7      1     4       9    8   10    8
         2     6       5    6    9    7
         3     9       4    5    9    6
  8      1     3      10    4    7   10
         2     9      10    4    6    7
         3     9      10    3    7    6
  9      1     5       8    7    7    8
         2     6       5    3    7    8
         3     7       4    1    6    8
 10      1     7       6    6    7   10
         2     7       5    6    9   10
         3     8       5    2    5   10
 11      1     1       8    7    9    6
         2     2       6    4    9    6
         3     6       3    1    7    4
 12      1     5       7    9   10    6
         2     6       6    8    9    4
         3     9       2    8    9    3
 13      1     2       6    3    2    8
         2     5       6    3    2    6
         3     8       5    1    2    4
 14      1     3       7   10    2    8
         2     4       6   10    2    6
         3     9       4   10    1    3
 15      1     8       6    7    3    2
         2     9       5    7    1    2
         3     9       5    6    3    2
 16      1     5       6    2    4    9
         2     7       6    1    4    6
         3     8       5    1    2    4
 17      1     7       7    9   10    9
         2     7       6    9    9   10
         3     8       3    9    6    8
 18      1     2       8    9    6   10
         2     4       7    6    4    8
         3    10       6    4    2    6
 19      1     5       7    3    8    5
         2     7       6    2    4    3
         3     7       5    3    4    4
 20      1     3       5    3    9    7
         2     6       5    2    9    6
         3     7       5    2    9    5
 21      1     3       9    3    9    4
         2     7       9    3    8    3
         3     7       8    1    9    1
 22      1     0       0    0    0    0
************************************************************************
RESOURCEAVAILABILITIES:
  R 1  R 2  N 1  N 2
   36   41  118  125
************************************************************************
MAXIMAL LAGS:
from  to  type  delay
    1   12   ES      0
    1    2   ES      0
    2   12   ES      0
    1    3   ES      0
    3   12   ES      0
    1    4   ES      0
    4   12   ES      0
    1    5   ES      0
    5   12   ES      0
    1    6   ES      0
    6   12   ES      0
    1    7   ES      0
    7   12   ES      0
    1    8   ES      0
    8   12   ES      0
    1    9   ES      0
    9   12   ES      0
    1   10   ES      0
   10   12   ES      0
    1   11   ES      0
   11   12   ES      0
    1   12   ES      0
    2    6   SS     -8
    2    6   SE      9
    2    6   ES     -6
    2    6   EE      5
    2    7   SS    -12
    2    7   SE     -4
    2    7   ES     10
    2    7   EE     -1
    2   15   SS     -5
    2   15   SE     -3
    2   15   ES      2
    2   15   EE      4
    3    5   SS     -7
    3    5   SE      2
    3    5   ES      2
    3    5   EE      9
    3    7   SS     -8
    3    7   SE     -2
    3    7   ES     -6
    3    7   EE     11
    3   18   SS     -8
    3   18   SE    -11
    3   18   ES      7
    3   18   EE     -1
    4    5   SS      8
    4    5   SE      6
    4    5   ES      8
    4    5   EE     10
    4   18   SS     -7
    4   18   SE      5
    4   18   ES     -4
    4   18   EE      4
    5   10   SS      6
    5   10   SE      5
    5   10   ES      3
    5   10   EE     -5
    6    8   SS     -1
    6    8   SE     10
    6    8   ES      4
    6    8   EE      3
    6    9   SS     -7
    6    9   SE      2
    6    9   ES     -7
    6    9   EE      7
    7    9   SS      7
    7    9   SE     -6
    7    9   ES     -6
    7    9   EE      8
    7   10   SS     11
    7   10   SE     -2
    7   10   ES     10
    7   10   EE      3
    7   19   SS      9
    7   19   SE      8
    7   19   ES    -12
    7   19   EE     -7
    8   16   SS     10
    8   16   SE     -4
    8   16   ES    -12
    8   16   EE      7
    8   17   SS     -5
    8   17   SE      6
    8   17   ES      4
    8   17   EE      0
    8   18   SS      9
    8   18   SE      1
    8   18   ES     -6
    8   18   EE     10
    9   11   SS      7
    9   11   SE      4
    9   11   ES     -3
    9   11   EE     12
   10   11   SS      0
   10   11   SE     -3
   10   11   ES      5
   10   11   EE     -3
   11   13   SS     -4
   11   13   SE     -8
   11   13   ES      9
   11   13   EE      2
   11   17   SS     -5
   11   17   SE      6
   11   17   ES      5
   11   17   EE     -5
   12   13   SS     -2
   12   13   SE     11
   12   13   ES     12
   12   13   EE      0
   13   14   SS      9
   13   14   SE     -1
   13   14   ES     -8
   13   14   EE     10
   13   16   SS     -5
   13   16   SE      7
   13   16   ES    -10
   13   16   EE      5
   14   20   SS     11
   14   20   SE      5
   14   20   ES      1
   14   20   EE      9
   15   16   SS      2
   15   16   SE      0
   15   16   ES     -7
   15   16   EE     -8
   15   19   SS      3
   15   19   SE     -5
   15   19   ES     -2
   15   19   EE     -5
   15   20   SS     -5
   15   20   SE     -3
   15   20   ES    -12
   15   20   EE      0
   16   21   SS      8
   16   21   SE     -7
   16   21   ES    -11
   16   21   EE     -9
   17   20   SS      1
   17   20   SE      1
   17   20   ES     -6
   17   20   EE     -5
   17   21   SS     -4
   17   21   SE     12
   17   21   ES    -11
   17   21   EE     -9
   18   19   SS     -4
   18   19   SE     10
   18   19   ES     -8
   18   19   EE    -10
   18   21   SS     -1
   18   21   SE      0
   18   21   ES     10
   18   21   EE     -6
   19   22   SS     -4
   19   22   SE     10
   19   22   ES     -2
   19   22   EE     -7
   20   22   SS      1
   20   22   SE     -6
   22   20   SE      0
   20   22   ES      0
   20   22   EE     -7
   21   22   SS      4
   21   22   SE      5
   21   22   ES      1
   21   22   EE     -7
************************************************************************
